p edge 64 512
e 1 21
e 1 61
e 1 5
e 1 22
e 1 42
e 1 24
e 1 17
e 1 50
e 1 20
e 2 22
e 2 14
e 2 23
e 2 25
e 2 20
e 2 58
e 2 10
e 2 3
e 2 8
e 2 6
e 2 62
e 2 33
e 2 37
e 2 34
e 2 47
e 2 35
e 2 53
e 3 39
e 3 46
e 3 19
e 3 27
e 3 18
e 3 22
e 3 47
e 3 57
e 3 6
e 3 12
e 3 64
e 3 56
e 3 49
e 3 45
e 3 50
e 4 33
e 4 26
e 4 32
e 4 7
e 4 21
e 4 50
e 4 36
e 4 6
e 4 16
e 4 59
e 4 5
e 5 49
e 5 52
e 5 33
e 5 37
e 5 9
e 5 24
e 5 35
e 5 13
e 5 63
e 5 12
e 5 59
e 5 45
e 5 56
e 5 64
e 5 29
e 6 14
e 6 22
e 6 30
e 6 25
e 6 53
e 6 31
e 6 15
e 6 51
e 6 48
e 6 38
e 6 17
e 6 50
e 6 44
e 6 26
e 6 10
e 6 24
e 7 47
e 7 18
e 7 22
e 7 59
e 7 63
e 7 26
e 7 64
e 7 60
e 7 20
e 7 25
e 7 13
e 7 30
e 8 49
e 8 56
e 8 42
e 8 38
e 8 25
e 8 54
e 8 34
e 8 20
e 8 35
e 8 10
e 8 61
e 8 52
e 8 18
e 8 29
e 8 12
e 8 51
e 9 11
e 9 58
e 9 17
e 9 46
e 9 42
e 9 55
e 9 47
e 9 64
e 9 18
e 9 51
e 9 60
e 9 41
e 10 32
e 10 21
e 10 28
e 10 55
e 10 46
e 10 52
e 10 20
e 10 27
e 10 61
e 10 23
e 10 26
e 10 59
e 10 17
e 11 40
e 11 64
e 11 23
e 11 39
e 11 45
e 11 43
e 11 27
e 11 26
e 11 14
e 11 29
e 11 51
e 11 59
e 11 60
e 11 50
e 12 23
e 12 51
e 12 37
e 12 29
e 12 32
e 12 30
e 12 22
e 12 39
e 12 17
e 12 14
e 12 35
e 12 41
e 12 33
e 12 50
e 13 35
e 13 31
e 13 16
e 13 56
e 13 37
e 13 15
e 13 49
e 13 38
e 13 30
e 13 63
e 13 62
e 14 51
e 14 34
e 14 50
e 14 61
e 14 39
e 14 31
e 14 33
e 14 62
e 14 25
e 14 40
e 14 58
e 14 35
e 14 57
e 14 28
e 15 24
e 15 52
e 15 35
e 15 44
e 15 22
e 15 18
e 15 32
e 15 42
e 15 26
e 15 16
e 15 43
e 16 33
e 16 46
e 16 48
e 16 26
e 16 36
e 16 64
e 16 27
e 16 37
e 16 44
e 17 43
e 17 50
e 17 20
e 17 61
e 17 64
e 17 52
e 17 38
e 17 45
e 17 57
e 18 34
e 18 28
e 18 49
e 18 42
e 18 23
e 18 53
e 18 55
e 18 38
e 18 50
e 18 36
e 18 20
e 18 51
e 18 39
e 19 49
e 19 44
e 19 28
e 19 53
e 19 41
e 19 52
e 19 32
e 19 38
e 19 29
e 19 34
e 19 22
e 19 59
e 19 31
e 19 25
e 20 45
e 20 34
e 20 59
e 20 51
e 20 42
e 20 58
e 20 46
e 20 35
e 20 38
e 20 29
e 20 21
e 21 42
e 21 43
e 21 50
e 21 63
e 21 40
e 21 22
e 21 34
e 22 36
e 22 44
e 22 28
e 22 50
e 22 37
e 22 47
e 22 64
e 22 61
e 22 60
e 22 54
e 23 43
e 23 31
e 23 62
e 23 40
e 23 47
e 23 42
e 23 61
e 23 25
e 23 41
e 23 51
e 24 58
e 24 41
e 24 40
e 24 30
e 24 55
e 24 63
e 24 31
e 24 36
e 24 50
e 24 29
e 24 39
e 25 57
e 25 48
e 25 26
e 25 63
e 25 31
e 25 54
e 25 47
e 25 56
e 25 33
e 25 58
e 25 60
e 25 51
e 25 28
e 26 28
e 26 47
e 26 49
e 26 53
e 26 37
e 26 52
e 26 57
e 26 32
e 26 34
e 26 43
e 26 35
e 26 27
e 27 46
e 27 48
e 27 54
e 27 38
e 27 32
e 27 37
e 27 58
e 27 61
e 27 52
e 27 44
e 28 42
e 28 46
e 28 51
e 28 61
e 28 53
e 28 62
e 28 56
e 28 47
e 28 37
e 28 45
e 28 36
e 29 56
e 29 45
e 29 52
e 29 58
e 29 34
e 29 57
e 29 55
e 29 54
e 30 42
e 30 47
e 30 33
e 30 38
e 30 46
e 30 55
e 31 60
e 31 42
e 31 35
e 31 57
e 31 40
e 31 48
e 31 37
e 31 36
e 31 54
e 32 48
e 32 37
e 32 63
e 32 45
e 32 42
e 32 33
e 32 39
e 32 38
e 32 41
e 32 60
e 32 44
e 32 43
e 33 36
e 33 59
e 33 50
e 33 58
e 33 35
e 33 53
e 34 45
e 34 39
e 34 56
e 34 58
e 34 64
e 34 35
e 34 42
e 34 38
e 35 47
e 35 45
e 35 50
e 35 61
e 35 39
e 35 52
e 35 63
e 35 55
e 36 64
e 36 54
e 36 63
e 36 58
e 36 60
e 36 44
e 36 43
e 36 57
e 36 39
e 36 46
e 36 55
e 36 48
e 36 45
e 37 46
e 37 54
e 37 41
e 37 45
e 37 43
e 37 38
e 38 45
e 38 59
e 38 63
e 38 58
e 39 40
e 39 59
e 39 61
e 39 51
e 39 63
e 39 55
e 40 47
e 40 52
e 40 43
e 40 50
e 40 60
e 40 42
e 40 64
e 40 57
e 41 56
e 41 57
e 41 49
e 41 48
e 41 55
e 41 47
e 41 62
e 41 58
e 42 59
e 42 61
e 42 46
e 42 45
e 42 58
e 42 43
e 42 44
e 43 49
e 43 51
e 43 56
e 44 51
e 44 55
e 44 50
e 44 57
e 44 47
e 44 54
e 44 63
e 44 60
e 45 53
e 45 46
e 45 49
e 45 47
e 45 52
e 45 55
e 45 48
e 46 51
e 46 63
e 46 56
e 46 52
e 46 59
e 47 60
e 47 53
e 47 55
e 47 54
e 47 61
e 47 64
e 48 50
e 48 58
e 48 54
e 48 61
e 48 55
e 48 56
e 49 64
e 49 54
e 49 55
e 50 54
e 50 59
e 50 63
e 50 58
e 51 56
e 51 61
e 51 58
e 51 54
e 51 55
e 51 59
e 52 59
e 53 54
e 53 62
e 53 57
e 53 63
e 54 55
e 55 58
e 56 61
e 56 64
e 58 62
e 58 61
e 59 64
e 60 62
e 61 62
e 62 63
